(set-info :source |printed by MathSAT|)
(declare-fun call__DRAGON_.exclusive () Int)
(declare-fun dirty () Int)
(declare-fun call__DRAGON_.ite49 () Int)
(declare-fun param_e12 () Bool)
(declare-fun call__DRAGON_.g08 () Bool)
(declare-fun call__DRAGON_.flby6 () Int)
(declare-fun call__DRAGON_.ite45 () Int)
(declare-fun call__DRAGON_.ite42 () Int)
(declare-fun param_init_invalid () Int)
(declare-fun call__DRAGON_.ite30 () Int)
(declare-fun call__DRAGON_.ite38 () Int)
(declare-fun call__DRAGON_.erreur () Bool)
(declare-fun call__DRAGON_.ite19 () Int)
(declare-fun shared () Int)
(declare-fun call__DRAGON_.ite11 () Int)
(declare-fun call__DRAGON_.ite59 () Int)
(declare-fun call__DRAGON_.ite48 () Int)
(declare-fun call__DRAGON_.flby2 () Int)
(declare-fun param_e04 () Bool)
(declare-fun call__DRAGON_.ite35 () Int)
(declare-fun call__DRAGON_.ite22 () Int)
(declare-fun call__DRAGON_.flby3 () Int)
(declare-fun call__DRAGON_.ite40 () Int)
(declare-fun call__DRAGON_.ite46 () Int)
(declare-fun call__DRAGON_.ite23 () Int)
(declare-fun erreur () Bool)
(declare-fun call__DRAGON_.ite61 () Int)
(declare-fun call__DRAGON_.ite55 () Int)
(declare-fun param_e05 () Bool)
(declare-fun call__DRAGON_.ite21 () Int)
(declare-fun call__DRAGON_.ite33 () Int)
(declare-fun call__DRAGON_.ite28 () Int)
(declare-fun param_e11 () Bool)
(declare-fun call__DRAGON_.flby4 () Int)
(declare-fun call__DRAGON_.mem_init () Int)
(declare-fun call__DRAGON_.ite44 () Int)
(declare-fun call__DRAGON_.ite57 () Int)
(declare-fun call_Sofar.flby () Bool)
(declare-fun param_e07 () Bool)
(declare-fun call__DRAGON_.ite24 () Int)
(declare-fun param_e09 () Bool)
(declare-fun call__DRAGON_.ite34 () Int)
(declare-fun call__DRAGON_.g05 () Bool)
(declare-fun call__DRAGON_.ite31 () Int)
(declare-fun call__DRAGON_.ite56 () Int)
(declare-fun call__DRAGON_.ite54 () Int)
(declare-fun call__DRAGON_.ite47 () Int)
(declare-fun _OK_ () Bool)
(declare-fun invalid () Int)
(declare-fun call__DRAGON_.ite18 () Int)
(declare-fun call__DRAGON_.ite16 () Int)
(declare-fun call__DRAGON_.ite36 () Int)
(declare-fun call__DRAGON_.ite13 () Int)
(declare-fun shared_dirty () Int)
(declare-fun call__DRAGON_.ite60 () Int)
(declare-fun call_excludes12.excludes () Bool)
(declare-fun param_e02 () Bool)
(declare-fun call__DRAGON_.ite53 () Int)
(declare-fun param_e08 () Bool)
(declare-fun call__DRAGON_.dirty () Int)
(declare-fun call__DRAGON_.g06 () Bool)
(declare-fun call__DRAGON_.g04 () Bool)
(declare-fun call__DRAGON_.ite15 () Int)
(declare-fun call__DRAGON_.ite52 () Int)
(declare-fun call__DRAGON_.ite37 () Int)
(declare-fun call_First.flby () Int)
(declare-fun call__DRAGON_.ite3 () Int)
(declare-fun call__DRAGON_.ite9 () Int)
(declare-fun call__DRAGON_.ite43 () Int)
(declare-fun param_e06 () Bool)
(declare-fun call__DRAGON_.ite27 () Int)
(declare-fun call__DRAGON_.ite50 () Int)
(declare-fun call__DRAGON_.ite6 () Int)
(declare-fun param_e10 () Bool)
(declare-fun call__DRAGON_.ite25 () Int)
(declare-fun call__DRAGON_.ite10 () Int)
(declare-fun call__DRAGON_.ite14 () Int)
(declare-fun call__DRAGON_.ite58 () Int)
(declare-fun param_e01 () Bool)
(declare-fun call__DRAGON_.ite8 () Int)
(declare-fun call__DRAGON_.ite51 () Int)
(declare-fun call__DRAGON_.invalid () Int)
(declare-fun call__DRAGON_.ite39 () Int)
(declare-fun exclusive () Int)
(declare-fun call__DRAGON_.ite () Bool)
(declare-fun call__DRAGON_.ite41 () Int)
(declare-fun call__DRAGON_.shared () Int)
(declare-fun param_e03 () Bool)
(declare-fun call__DRAGON_.g02 () Bool)
(declare-fun call__DRAGON_.ite7 () Int)
(declare-fun call__DRAGON_.ite26 () Int)
(declare-fun call__DRAGON_.ite20 () Int)
(declare-fun call_First.First () Int)
(declare-fun call__DRAGON_.ite2 () Int)
(declare-fun call__DRAGON_.ite12 () Int)
(declare-fun call__DRAGON_.flby5 () Int)
(declare-fun call__DRAGON_.flby () Int)
(declare-fun call__DRAGON_.ite5 () Int)
(declare-fun call__DRAGON_.ite32 () Int)
(declare-fun env () Bool)
(declare-fun call__DRAGON_.ite29 () Int)
(declare-fun call__DRAGON_.ite4 () Int)
(declare-fun call_Sofar.Sofar () Bool)
(declare-fun call__DRAGON_.shared_dirty () Int)
(declare-fun flby () Bool)
(declare-fun call__DRAGON_.ite17 () Int)
(define-fun .def_1831 () Bool (= call_First.flby call_First.First))
(define-fun .def_1829 () Bool (= call_Sofar.flby call_Sofar.Sofar))
(define-fun .def_1638 () Bool (not param_e02))
(define-fun .def_1619 () Bool (not param_e01))
(define-fun .def_1727 () Bool (and .def_1619 .def_1638))
(define-fun .def_1679 () Bool (not param_e03))
(define-fun .def_1728 () Bool (and .def_1679 .def_1727))
(define-fun .def_1695 () Bool (not param_e04))
(define-fun .def_1729 () Bool (and .def_1695 .def_1728))
(define-fun .def_1467 () Bool (not param_e05))
(define-fun .def_1730 () Bool (and .def_1467 .def_1729))
(define-fun .def_1449 () Bool (not param_e06))
(define-fun .def_1731 () Bool (and .def_1449 .def_1730))
(define-fun .def_1484 () Bool (not param_e07))
(define-fun .def_1732 () Bool (and .def_1484 .def_1731))
(define-fun .def_1503 () Bool (not param_e08))
(define-fun .def_1733 () Bool (and .def_1503 .def_1732))
(define-fun .def_1340 () Bool (not param_e09))
(define-fun .def_1734 () Bool (and .def_1340 .def_1733))
(define-fun .def_1348 () Bool (not param_e10))
(define-fun .def_1735 () Bool (and .def_1348 .def_1734))
(define-fun .def_1355 () Bool (not param_e11))
(define-fun .def_1736 () Bool (and .def_1355 .def_1735))
(define-fun .def_1362 () Bool (not param_e12))
(define-fun .def_1814 () Bool (and .def_1362 .def_1736))
(define-fun .def_1803 () Bool (and param_e01 .def_1638))
(define-fun .def_1804 () Bool (and .def_1679 .def_1803))
(define-fun .def_1805 () Bool (and .def_1695 .def_1804))
(define-fun .def_1806 () Bool (and .def_1467 .def_1805))
(define-fun .def_1807 () Bool (and .def_1449 .def_1806))
(define-fun .def_1808 () Bool (and .def_1484 .def_1807))
(define-fun .def_1809 () Bool (and .def_1503 .def_1808))
(define-fun .def_1810 () Bool (and .def_1340 .def_1809))
(define-fun .def_1811 () Bool (and .def_1348 .def_1810))
(define-fun .def_1812 () Bool (and .def_1355 .def_1811))
(define-fun .def_1813 () Bool (and .def_1362 .def_1812))
(define-fun .def_1815 () Bool (or .def_1813 .def_1814))
(define-fun .def_1792 () Bool (and .def_1619 param_e02))
(define-fun .def_1793 () Bool (and .def_1679 .def_1792))
(define-fun .def_1794 () Bool (and .def_1695 .def_1793))
(define-fun .def_1795 () Bool (and .def_1467 .def_1794))
(define-fun .def_1796 () Bool (and .def_1449 .def_1795))
(define-fun .def_1797 () Bool (and .def_1484 .def_1796))
(define-fun .def_1798 () Bool (and .def_1503 .def_1797))
(define-fun .def_1799 () Bool (and .def_1340 .def_1798))
(define-fun .def_1800 () Bool (and .def_1348 .def_1799))
(define-fun .def_1801 () Bool (and .def_1355 .def_1800))
(define-fun .def_1802 () Bool (and .def_1362 .def_1801))
(define-fun .def_1816 () Bool (or .def_1802 .def_1815))
(define-fun .def_1782 () Bool (and param_e03 .def_1727))
(define-fun .def_1783 () Bool (and .def_1695 .def_1782))
(define-fun .def_1784 () Bool (and .def_1467 .def_1783))
(define-fun .def_1785 () Bool (and .def_1449 .def_1784))
(define-fun .def_1786 () Bool (and .def_1484 .def_1785))
(define-fun .def_1787 () Bool (and .def_1503 .def_1786))
(define-fun .def_1788 () Bool (and .def_1340 .def_1787))
(define-fun .def_1789 () Bool (and .def_1348 .def_1788))
(define-fun .def_1790 () Bool (and .def_1355 .def_1789))
(define-fun .def_1791 () Bool (and .def_1362 .def_1790))
(define-fun .def_1817 () Bool (or .def_1791 .def_1816))
(define-fun .def_1773 () Bool (and param_e04 .def_1728))
(define-fun .def_1774 () Bool (and .def_1467 .def_1773))
(define-fun .def_1775 () Bool (and .def_1449 .def_1774))
(define-fun .def_1776 () Bool (and .def_1484 .def_1775))
(define-fun .def_1777 () Bool (and .def_1503 .def_1776))
(define-fun .def_1778 () Bool (and .def_1340 .def_1777))
(define-fun .def_1779 () Bool (and .def_1348 .def_1778))
(define-fun .def_1780 () Bool (and .def_1355 .def_1779))
(define-fun .def_1781 () Bool (and .def_1362 .def_1780))
(define-fun .def_1818 () Bool (or .def_1781 .def_1817))
(define-fun .def_1765 () Bool (and param_e05 .def_1729))
(define-fun .def_1766 () Bool (and .def_1449 .def_1765))
(define-fun .def_1767 () Bool (and .def_1484 .def_1766))
(define-fun .def_1768 () Bool (and .def_1503 .def_1767))
(define-fun .def_1769 () Bool (and .def_1340 .def_1768))
(define-fun .def_1770 () Bool (and .def_1348 .def_1769))
(define-fun .def_1771 () Bool (and .def_1355 .def_1770))
(define-fun .def_1772 () Bool (and .def_1362 .def_1771))
(define-fun .def_1819 () Bool (or .def_1772 .def_1818))
(define-fun .def_1758 () Bool (and param_e06 .def_1730))
(define-fun .def_1759 () Bool (and .def_1484 .def_1758))
(define-fun .def_1760 () Bool (and .def_1503 .def_1759))
(define-fun .def_1761 () Bool (and .def_1340 .def_1760))
(define-fun .def_1762 () Bool (and .def_1348 .def_1761))
(define-fun .def_1763 () Bool (and .def_1355 .def_1762))
(define-fun .def_1764 () Bool (and .def_1362 .def_1763))
(define-fun .def_1820 () Bool (or .def_1764 .def_1819))
(define-fun .def_1752 () Bool (and param_e07 .def_1731))
(define-fun .def_1753 () Bool (and .def_1503 .def_1752))
(define-fun .def_1754 () Bool (and .def_1340 .def_1753))
(define-fun .def_1755 () Bool (and .def_1348 .def_1754))
(define-fun .def_1756 () Bool (and .def_1355 .def_1755))
(define-fun .def_1757 () Bool (and .def_1362 .def_1756))
(define-fun .def_1821 () Bool (or .def_1757 .def_1820))
(define-fun .def_1747 () Bool (and param_e08 .def_1732))
(define-fun .def_1748 () Bool (and .def_1340 .def_1747))
(define-fun .def_1749 () Bool (and .def_1348 .def_1748))
(define-fun .def_1750 () Bool (and .def_1355 .def_1749))
(define-fun .def_1751 () Bool (and .def_1362 .def_1750))
(define-fun .def_1822 () Bool (or .def_1751 .def_1821))
(define-fun .def_1743 () Bool (and param_e09 .def_1733))
(define-fun .def_1744 () Bool (and .def_1348 .def_1743))
(define-fun .def_1745 () Bool (and .def_1355 .def_1744))
(define-fun .def_1746 () Bool (and .def_1362 .def_1745))
(define-fun .def_1823 () Bool (or .def_1746 .def_1822))
(define-fun .def_1740 () Bool (and param_e10 .def_1734))
(define-fun .def_1741 () Bool (and .def_1355 .def_1740))
(define-fun .def_1742 () Bool (and .def_1362 .def_1741))
(define-fun .def_1824 () Bool (or .def_1742 .def_1823))
(define-fun .def_1738 () Bool (and param_e11 .def_1735))
(define-fun .def_1739 () Bool (and .def_1362 .def_1738))
(define-fun .def_1825 () Bool (or .def_1739 .def_1824))
(define-fun .def_1737 () Bool (and param_e12 .def_1736))
(define-fun .def_1826 () Bool (or .def_1737 .def_1825))
(define-fun .def_1827 () Bool (= call_excludes12.excludes .def_1826))
(define-fun .def_1725 () Bool (= call__DRAGON_.mem_init call__DRAGON_.flby))
(define-fun .def_1723 () Bool (= call__DRAGON_.erreur call__DRAGON_.ite))
(define-fun .def_1721 () Bool (= call__DRAGON_.flby6 call__DRAGON_.invalid))
(define-fun .def_1719 () Bool (= call__DRAGON_.flby5 call__DRAGON_.dirty))
(define-fun .def_1717 () Bool (= call__DRAGON_.flby4 call__DRAGON_.shared_dirty))
(define-fun .def_1715 () Bool (= call__DRAGON_.flby3 call__DRAGON_.shared))
(define-fun .def_1712 () Bool (= call__DRAGON_.flby2 call__DRAGON_.exclusive))
(define-fun .def_1707 () Bool (<= 2 call__DRAGON_.exclusive))
(define-fun .def_1709 () Bool (not .def_1707))
(define-fun .def_1710 () Bool (or call__DRAGON_.ite .def_1709))
(define-fun .def_1706 () Bool (not call__DRAGON_.ite))
(define-fun .def_1708 () Bool (or .def_1706 .def_1707))
(define-fun .def_1711 () Bool (and .def_1708 .def_1710))
(define-fun .def_1713 () Bool (and .def_1711 .def_1712))
(define-fun .def_1701 () Bool (= call__DRAGON_.ite29 call__DRAGON_.ite30))
(define-fun .def_1702 () Bool (or param_e04 .def_1701))
(define-fun .def_1698 () Bool (= call__DRAGON_.ite23 call__DRAGON_.ite30))
(define-fun .def_1699 () Bool (or .def_1695 .def_1698))
(define-fun .def_1694 () Bool (= call__DRAGON_.ite43 call__DRAGON_.ite34))
(define-fun .def_1696 () Bool (or .def_1694 .def_1695))
(define-fun .def_1690 () Bool (= call__DRAGON_.ite42 call__DRAGON_.ite43))
(define-fun .def_1692 () Bool (or .def_1690 param_e04))
(define-fun .def_1697 () Bool (and .def_1692 .def_1696))
(define-fun .def_1700 () Bool (and .def_1697 .def_1699))
(define-fun .def_1703 () Bool (and .def_1700 .def_1702))
(define-fun .def_1686 () Bool (= call__DRAGON_.ite8 call__DRAGON_.ite9))
(define-fun .def_1687 () Bool (or param_e03 .def_1686))
(define-fun .def_1683 () Bool (= call__DRAGON_.ite9 call__DRAGON_.ite4))
(define-fun .def_1684 () Bool (or .def_1679 .def_1683))
(define-fun .def_1678 () Bool (= call__DRAGON_.ite44 call__DRAGON_.ite33))
(define-fun .def_1680 () Bool (or .def_1678 .def_1679))
(define-fun .def_1674 () Bool (= call__DRAGON_.ite44 call__DRAGON_.ite43))
(define-fun .def_1676 () Bool (or .def_1674 param_e03))
(define-fun .def_1681 () Bool (and .def_1676 .def_1680))
(define-fun .def_1685 () Bool (and .def_1681 .def_1684))
(define-fun .def_1688 () Bool (and .def_1685 .def_1687))
(define-fun .def_1669 () Bool (= call__DRAGON_.ite31 call__DRAGON_.ite30))
(define-fun .def_1670 () Bool (or param_e02 .def_1669))
(define-fun .def_1665 () Bool (= call__DRAGON_.ite22 call__DRAGON_.ite31))
(define-fun .def_1666 () Bool (or .def_1638 .def_1665))
(define-fun .def_1660 () Bool (= call__DRAGON_.ite20 call__DRAGON_.ite21))
(define-fun .def_1661 () Bool (or param_e02 .def_1660))
(define-fun .def_1657 () Bool (= call__DRAGON_.ite12 call__DRAGON_.ite21))
(define-fun .def_1658 () Bool (or .def_1638 .def_1657))
(define-fun .def_1652 () Bool (= call__DRAGON_.ite10 call__DRAGON_.ite9))
(define-fun .def_1653 () Bool (or param_e02 .def_1652))
(define-fun .def_1648 () Bool (= call__DRAGON_.ite3 call__DRAGON_.ite10))
(define-fun .def_1649 () Bool (or .def_1638 .def_1648))
(define-fun .def_1645 () Bool (= call__DRAGON_.ite59 call__DRAGON_.ite60))
(define-fun .def_1646 () Bool (or param_e02 .def_1645))
(define-fun .def_1642 () Bool (= call__DRAGON_.ite60 call__DRAGON_.ite47))
(define-fun .def_1643 () Bool (or .def_1638 .def_1642))
(define-fun .def_1637 () Bool (= call__DRAGON_.ite32 call__DRAGON_.ite45))
(define-fun .def_1639 () Bool (or .def_1637 .def_1638))
(define-fun .def_1634 () Bool (= call__DRAGON_.ite45 call__DRAGON_.ite44))
(define-fun .def_1636 () Bool (or .def_1634 param_e02))
(define-fun .def_1640 () Bool (and .def_1636 .def_1639))
(define-fun .def_1644 () Bool (and .def_1640 .def_1643))
(define-fun .def_1647 () Bool (and .def_1644 .def_1646))
(define-fun .def_1650 () Bool (and .def_1647 .def_1649))
(define-fun .def_1654 () Bool (and .def_1650 .def_1653))
(define-fun .def_1659 () Bool (and .def_1654 .def_1658))
(define-fun .def_1662 () Bool (and .def_1659 .def_1661))
(define-fun .def_1667 () Bool (and .def_1662 .def_1666))
(define-fun .def_1671 () Bool (and .def_1667 .def_1670))
(define-fun .def_1628 () Bool (= call__DRAGON_.ite11 call__DRAGON_.ite10))
(define-fun .def_1629 () Bool (or param_e01 .def_1628))
(define-fun .def_1624 () Bool (= call__DRAGON_.ite2 call__DRAGON_.ite11))
(define-fun .def_1625 () Bool (or .def_1619 .def_1624))
(define-fun .def_1618 () Bool (= call__DRAGON_.ite61 call__DRAGON_.ite46))
(define-fun .def_1620 () Bool (or .def_1618 .def_1619))
(define-fun .def_1614 () Bool (= call__DRAGON_.ite61 call__DRAGON_.ite60))
(define-fun .def_1616 () Bool (or .def_1614 param_e01))
(define-fun .def_1621 () Bool (and .def_1616 .def_1620))
(define-fun .def_1626 () Bool (and .def_1621 .def_1625))
(define-fun .def_1630 () Bool (and .def_1626 .def_1629))
(define-fun .def_1608 () Bool (= call__DRAGON_.ite55 call__DRAGON_.ite52))
(define-fun .def_1609 () Bool (or .def_1355 .def_1608))
(define-fun .def_1605 () Bool (= call__DRAGON_.ite54 call__DRAGON_.ite55))
(define-fun .def_1606 () Bool (or param_e11 .def_1605))
(define-fun .def_1610 () Bool (and .def_1606 .def_1609))
(define-fun .def_1601 () Bool (= call__DRAGON_.ite56 call__DRAGON_.ite51))
(define-fun .def_1602 () Bool (or .def_1348 .def_1601))
(define-fun .def_1598 () Bool (= call__DRAGON_.ite56 call__DRAGON_.ite55))
(define-fun .def_1599 () Bool (or param_e10 .def_1598))
(define-fun .def_1603 () Bool (and .def_1599 .def_1602))
(define-fun .def_1593 () Bool (= call__DRAGON_.ite57 call__DRAGON_.ite50))
(define-fun .def_1594 () Bool (or .def_1340 .def_1593))
(define-fun .def_1590 () Bool (= call__DRAGON_.ite57 call__DRAGON_.ite56))
(define-fun .def_1591 () Bool (or param_e09 .def_1590))
(define-fun .def_1595 () Bool (and .def_1591 .def_1594))
(define-fun .def_1587 () Bool (= env call_Sofar.Sofar))
(define-fun .def_1584 () Bool (= erreur call__DRAGON_.erreur))
(define-fun .def_1581 () Bool (= invalid call__DRAGON_.invalid))
(define-fun .def_1578 () Bool (= dirty call__DRAGON_.dirty))
(define-fun .def_1575 () Bool (= shared_dirty call__DRAGON_.shared_dirty))
(define-fun .def_1572 () Bool (= shared call__DRAGON_.shared))
(define-fun .def_1569 () Bool (= exclusive call__DRAGON_.exclusive))
(define-fun .def_1563 () Bool (<= 0 exclusive))
(define-fun .def_1555 () Int (* (- 1) call_First.First))
(define-fun .def_1556 () Int (+ invalid .def_1555))
(define-fun .def_1557 () Int (+ dirty .def_1556))
(define-fun .def_1558 () Int (+ shared_dirty .def_1557))
(define-fun .def_1559 () Int (+ shared .def_1558))
(define-fun .def_1560 () Int (+ exclusive .def_1559))
(define-fun .def_1561 () Bool (= .def_1560 0))
(define-fun .def_1537 () Bool (not erreur))
(define-fun .def_1538 () Bool (and flby .def_1537))
(define-fun .def_1562 () Bool (and .def_1538 .def_1561))
(define-fun .def_1564 () Bool (and .def_1562 .def_1563))
(define-fun .def_1535 () Bool (not env))
(define-fun .def_1565 () Bool (or .def_1535 .def_1564))
(define-fun .def_1566 () Bool (= _OK_ .def_1565))
(define-fun .def_1529 () Bool (= call__DRAGON_.ite39 call__DRAGON_.ite40))
(define-fun .def_1530 () Bool (or param_e08 .def_1529))
(define-fun .def_1526 () Bool (= call__DRAGON_.ite37 call__DRAGON_.ite40))
(define-fun .def_1527 () Bool (or .def_1503 .def_1526))
(define-fun .def_1523 () Bool (= call__DRAGON_.ite27 call__DRAGON_.ite28))
(define-fun .def_1524 () Bool (or param_e08 .def_1523))
(define-fun .def_1520 () Bool (= call__DRAGON_.ite25 call__DRAGON_.ite28))
(define-fun .def_1521 () Bool (or .def_1503 .def_1520))
(define-fun .def_1517 () Bool (= call__DRAGON_.ite17 call__DRAGON_.ite18))
(define-fun .def_1518 () Bool (or param_e08 .def_1517))
(define-fun .def_1514 () Bool (= call__DRAGON_.ite18 call__DRAGON_.ite15))
(define-fun .def_1515 () Bool (or .def_1503 .def_1514))
(define-fun .def_1510 () Bool (= call__DRAGON_.ite7 call__DRAGON_.ite8))
(define-fun .def_1511 () Bool (or param_e08 .def_1510))
(define-fun .def_1507 () Bool (= call__DRAGON_.ite5 call__DRAGON_.ite8))
(define-fun .def_1508 () Bool (or .def_1503 .def_1507))
(define-fun .def_1502 () Bool (= call__DRAGON_.ite58 call__DRAGON_.ite49))
(define-fun .def_1504 () Bool (or .def_1502 .def_1503))
(define-fun .def_1498 () Bool (= call__DRAGON_.ite58 call__DRAGON_.ite57))
(define-fun .def_1500 () Bool (or .def_1498 param_e08))
(define-fun .def_1505 () Bool (and .def_1500 .def_1504))
(define-fun .def_1509 () Bool (and .def_1505 .def_1508))
(define-fun .def_1512 () Bool (and .def_1509 .def_1511))
(define-fun .def_1516 () Bool (and .def_1512 .def_1515))
(define-fun .def_1519 () Bool (and .def_1516 .def_1518))
(define-fun .def_1522 () Bool (and .def_1519 .def_1521))
(define-fun .def_1525 () Bool (and .def_1522 .def_1524))
(define-fun .def_1528 () Bool (and .def_1525 .def_1527))
(define-fun .def_1531 () Bool (and .def_1528 .def_1530))
(define-fun .def_1493 () Bool (= call__DRAGON_.ite59 call__DRAGON_.ite58))
(define-fun .def_1494 () Bool (or param_e07 .def_1493))
(define-fun .def_1489 () Bool (= call__DRAGON_.ite48 call__DRAGON_.ite59))
(define-fun .def_1490 () Bool (or .def_1484 .def_1489))
(define-fun .def_1483 () Bool (= call__DRAGON_.ite41 call__DRAGON_.ite36))
(define-fun .def_1485 () Bool (or .def_1483 .def_1484))
(define-fun .def_1479 () Bool (= call__DRAGON_.ite41 call__DRAGON_.ite40))
(define-fun .def_1481 () Bool (or .def_1479 param_e07))
(define-fun .def_1486 () Bool (and .def_1481 .def_1485))
(define-fun .def_1491 () Bool (and .def_1486 .def_1490))
(define-fun .def_1495 () Bool (and .def_1491 .def_1494))
(define-fun .def_1474 () Bool (= call__DRAGON_.ite19 call__DRAGON_.ite20))
(define-fun .def_1475 () Bool (or param_e05 .def_1474))
(define-fun .def_1471 () Bool (= call__DRAGON_.ite13 call__DRAGON_.ite20))
(define-fun .def_1472 () Bool (or .def_1467 .def_1471))
(define-fun .def_1466 () Bool (= call__DRAGON_.ite42 call__DRAGON_.ite35))
(define-fun .def_1468 () Bool (or .def_1466 .def_1467))
(define-fun .def_1462 () Bool (= call__DRAGON_.ite41 call__DRAGON_.ite42))
(define-fun .def_1464 () Bool (or .def_1462 param_e05))
(define-fun .def_1469 () Bool (and .def_1464 .def_1468))
(define-fun .def_1473 () Bool (and .def_1469 .def_1472))
(define-fun .def_1476 () Bool (and .def_1473 .def_1475))
(define-fun .def_1457 () Bool (= call__DRAGON_.ite29 call__DRAGON_.ite28))
(define-fun .def_1458 () Bool (or param_e06 .def_1457))
(define-fun .def_1453 () Bool (= call__DRAGON_.ite24 call__DRAGON_.ite29))
(define-fun .def_1454 () Bool (or .def_1449 .def_1453))
(define-fun .def_1448 () Bool (= call__DRAGON_.ite19 call__DRAGON_.ite14))
(define-fun .def_1450 () Bool (or .def_1448 .def_1449))
(define-fun .def_1444 () Bool (= call__DRAGON_.ite19 call__DRAGON_.ite18))
(define-fun .def_1446 () Bool (or .def_1444 param_e06))
(define-fun .def_1451 () Bool (and .def_1446 .def_1450))
(define-fun .def_1455 () Bool (and .def_1451 .def_1454))
(define-fun .def_1459 () Bool (and .def_1455 .def_1458))
(define-fun .def_1477 () Bool (and .def_1459 .def_1476))
(define-fun .def_1496 () Bool (and .def_1477 .def_1495))
(define-fun .def_1532 () Bool (and .def_1496 .def_1531))
(define-fun .def_1567 () Bool (and .def_1532 .def_1566))
(define-fun .def_1570 () Bool (and .def_1567 .def_1569))
(define-fun .def_1573 () Bool (and .def_1570 .def_1572))
(define-fun .def_1576 () Bool (and .def_1573 .def_1575))
(define-fun .def_1579 () Bool (and .def_1576 .def_1578))
(define-fun .def_1582 () Bool (and .def_1579 .def_1581))
(define-fun .def_1585 () Bool (and .def_1582 .def_1584))
(define-fun .def_1588 () Bool (and .def_1585 .def_1587))
(define-fun .def_1596 () Bool (and .def_1588 .def_1595))
(define-fun .def_1604 () Bool (and .def_1596 .def_1603))
(define-fun .def_1611 () Bool (and .def_1604 .def_1610))
(define-fun .def_1631 () Bool (and .def_1611 .def_1630))
(define-fun .def_1672 () Bool (and .def_1631 .def_1671))
(define-fun .def_1689 () Bool (and .def_1672 .def_1688))
(define-fun .def_1704 () Bool (and .def_1689 .def_1703))
(define-fun .def_1714 () Bool (and .def_1704 .def_1713))
(define-fun .def_1716 () Bool (and .def_1714 .def_1715))
(define-fun .def_1718 () Bool (and .def_1716 .def_1717))
(define-fun .def_1720 () Bool (and .def_1718 .def_1719))
(define-fun .def_1722 () Bool (and .def_1720 .def_1721))
(define-fun .def_1724 () Bool (and .def_1722 .def_1723))
(define-fun .def_1726 () Bool (and .def_1724 .def_1725))
(define-fun .def_1828 () Bool (and .def_1726 .def_1827))
(define-fun .def_1830 () Bool (and .def_1828 .def_1829))
(define-fun .def_1832 () Bool (and .def_1830 .def_1831))
(define-fun .def_1440 () Bool (= param_init_invalid call_First.flby))
(define-fun .def_1432 () Bool (<= param_init_invalid 0))
(define-fun .def_1433 () Bool (not .def_1432))
(define-fun .def_1435 () Bool (and .def_1433 call_excludes12.excludes))
(define-fun .def_1437 () Bool (= .def_1435 call_Sofar.flby))
(define-fun .def_1430 () Bool (= call__DRAGON_.flby4 0))
(define-fun .def_1427 () Bool (= call__DRAGON_.flby3 0))
(define-fun .def_1424 () Bool (= call__DRAGON_.flby2 0))
(define-fun .def_1421 () Bool (= param_init_invalid call__DRAGON_.flby))
(define-fun .def_1415 () Bool (= call__DRAGON_.ite37 0))
(define-fun .def_1408 () Bool (not call__DRAGON_.g08))
(define-fun .def_1416 () Bool (or .def_1408 .def_1415))
(define-fun .def_1411 () Bool (= call__DRAGON_.ite5 0))
(define-fun .def_1412 () Bool (or .def_1408 .def_1411))
(define-fun .def_1406 () Bool (= call__DRAGON_.ite25 1))
(define-fun .def_1409 () Bool (or .def_1406 .def_1408))
(define-fun .def_1413 () Bool (and .def_1409 .def_1412))
(define-fun .def_1417 () Bool (and .def_1413 .def_1416))
(define-fun .def_1402 () Bool (= call__DRAGON_.ite24 1))
(define-fun .def_1400 () Bool (not call__DRAGON_.g06))
(define-fun .def_1403 () Bool (or .def_1400 .def_1402))
(define-fun .def_1396 () Bool (= call__DRAGON_.ite13 0))
(define-fun .def_1394 () Bool (not call__DRAGON_.g05))
(define-fun .def_1397 () Bool (or .def_1394 .def_1396))
(define-fun .def_1390 () Bool (= call__DRAGON_.ite23 0))
(define-fun .def_1388 () Bool (not call__DRAGON_.g04))
(define-fun .def_1391 () Bool (or .def_1388 .def_1390))
(define-fun .def_1383 () Bool (= call__DRAGON_.ite3 0))
(define-fun .def_1380 () Bool (not call__DRAGON_.g02))
(define-fun .def_1384 () Bool (or .def_1380 .def_1383))
(define-fun .def_1378 () Bool (= call__DRAGON_.ite32 0))
(define-fun .def_1381 () Bool (or .def_1378 .def_1380))
(define-fun .def_1385 () Bool (and .def_1381 .def_1384))
(define-fun .def_1375 () Bool (= call__DRAGON_.flby6 call__DRAGON_.mem_init))
(define-fun .def_1371 () Bool (= call__DRAGON_.flby5 0))
(define-fun .def_1366 () Bool (= call__DRAGON_.ite53 call__DRAGON_.ite54))
(define-fun .def_1367 () Bool (or .def_1362 .def_1366))
(define-fun .def_1360 () Bool (= call__DRAGON_.ite6 call__DRAGON_.ite7))
(define-fun .def_1363 () Bool (or .def_1360 .def_1362))
(define-fun .def_1368 () Bool (and .def_1363 .def_1367))
(define-fun .def_1353 () Bool (= call__DRAGON_.ite26 call__DRAGON_.ite27))
(define-fun .def_1356 () Bool (or .def_1353 .def_1355))
(define-fun .def_1346 () Bool (= call__DRAGON_.ite16 call__DRAGON_.ite17))
(define-fun .def_1349 () Bool (or .def_1346 .def_1348))
(define-fun .def_1338 () Bool (= call__DRAGON_.ite38 call__DRAGON_.ite39))
(define-fun .def_1341 () Bool (or .def_1338 .def_1340))
(define-fun .def_1343 () Bool (and .def_1341 flby))
(define-fun .def_1350 () Bool (and .def_1343 .def_1349))
(define-fun .def_1357 () Bool (and .def_1350 .def_1356))
(define-fun .def_1369 () Bool (and .def_1357 .def_1368))
(define-fun .def_1372 () Bool (and .def_1369 .def_1371))
(define-fun .def_1376 () Bool (and .def_1372 .def_1375))
(define-fun .def_1386 () Bool (and .def_1376 .def_1385))
(define-fun .def_1392 () Bool (and .def_1386 .def_1391))
(define-fun .def_1398 () Bool (and .def_1392 .def_1397))
(define-fun .def_1404 () Bool (and .def_1398 .def_1403))
(define-fun .def_1418 () Bool (and .def_1404 .def_1417))
(define-fun .def_1422 () Bool (and .def_1418 .def_1421))
(define-fun .def_1425 () Bool (and .def_1422 .def_1424))
(define-fun .def_1428 () Bool (and .def_1425 .def_1427))
(define-fun .def_1431 () Bool (and .def_1428 .def_1430))
(define-fun .def_1438 () Bool (and .def_1431 .def_1437))
(define-fun .def_1441 () Bool (and .def_1438 .def_1440))
(define-fun .def_1833 () Bool (and .def_1441 .def_1832))
(assert .def_1833)
